(set-info :smt-lib-version 2.6)
(set-info :category "crafted")
(set-logic QF_FF)
(define-sort FF0 () (_ FiniteField 52435875175126190479447740508185965837690552500527637822603658699938581184513))
(declare-fun mul_n27_alt () FF0)
(declare-fun mul_n22_alt () FF0)
(declare-fun mul_n26_alt () FF0)
(declare-fun mul_n23_alt () FF0)
(declare-fun i_n7_alt () FF0)
(declare-fun mul_n25_alt () FF0)
(declare-fun mul_n24_alt () FF0)
(declare-fun a_n12_alt () FF0)
(declare-fun b_n10_alt () FF0)
(declare-fun d_n6_alt () FF0)
(declare-fun e_n4_alt () FF0)
(declare-fun k_n3_alt () FF0)
(declare-fun mul_n21_alt () FF0)
(declare-fun mul_n20_alt () FF0)
(declare-fun g_n11_alt () FF0)
(declare-fun f_n2_alt () FF0)
(declare-fun mul_n19_alt () FF0)
(declare-fun c_n8_alt () FF0)
(declare-fun mul_n18_alt () FF0)
(declare-fun mul_n17_alt () FF0)
(declare-fun j_n5_alt () FF0)
(declare-fun l_n0_alt () FF0)
(declare-fun mul_n16_alt () FF0)
(declare-fun mul_n15_alt () FF0)
(declare-fun h_n9_alt () FF0)
(declare-fun mul_n14_alt () FF0)
(declare-fun mul_n13_alt () FF0)
(declare-fun mul_n27 () FF0)
(declare-fun mul_n22 () FF0)
(declare-fun mul_n26 () FF0)
(declare-fun mul_n23 () FF0)
(declare-fun i_n7 () FF0)
(declare-fun mul_n25 () FF0)
(declare-fun mul_n24 () FF0)
(declare-fun a_n12 () FF0)
(declare-fun b_n10 () FF0)
(declare-fun d_n6 () FF0)
(declare-fun e_n4 () FF0)
(declare-fun k_n3 () FF0)
(declare-fun mul_n21 () FF0)
(declare-fun mul_n20 () FF0)
(declare-fun g_n11 () FF0)
(declare-fun f_n2 () FF0)
(declare-fun mul_n19 () FF0)
(declare-fun c_n8 () FF0)
(declare-fun mul_n18 () FF0)
(declare-fun mul_n17 () FF0)
(declare-fun j_n5 () FF0)
(declare-fun l_n0 () FF0)
(declare-fun mul_n16 () FF0)
(declare-fun mul_n15 () FF0)
(declare-fun h_n9 () FF0)
(declare-fun mul_n14 () FF0)
(declare-fun mul_n13 () FF0)
(declare-fun return_n1_alt () FF0)
(declare-fun return_n1 () FF0)
(assert 
  (let ((let0 mul_n27_alt))
  (let ((let1 mul_n22_alt))
  (let ((let2 mul_n26_alt))
  (let ((let3 (ff.mul let2 let1)))
  (let ((let4 (= let3 let0)))
  (let ((let5 (as ff1 FF0)))
  (let ((let6 (as ff52435875175126190479447740508185965837690552500527637822603658699938581184512 FF0)))
  (let ((let7 mul_n23_alt))
  (let ((let8 (ff.mul let7 let6)))
  (let ((let9 (ff.add let8 let5)))
  (let ((let10 i_n7_alt))
  (let ((let11 mul_n25_alt))
  (let ((let12 (ff.add let11 let10)))
  (let ((let13 (ff.mul let12 let9)))
  (let ((let14 (= let13 let2)))
  (let ((let15 (ff.mul let10 let6)))
  (let ((let16 mul_n24_alt))
  (let ((let17 (ff.mul let16 let6)))
  (let ((let18 (ff.add let17 let15 let5)))
  (let ((let19 a_n12_alt))
  (let ((let20 (ff.mul let19 let18)))
  (let ((let21 (= let20 let11)))
  (let ((let22 b_n10_alt))
  (let ((let23 (ff.mul let22 let6)))
  (let ((let24 (ff.add let23 let5)))
  (let ((let25 d_n6_alt))
  (let ((let26 (ff.mul let25 let24)))
  (let ((let27 (= let26 let16)))
  (let ((let28 (ff.mul let25 let6)))
  (let ((let29 (ff.add let28 let5)))
  (let ((let30 e_n4_alt))
  (let ((let31 (ff.mul let30 let29)))
  (let ((let32 (= let31 let7)))
  (let ((let33 k_n3_alt))
  (let ((let34 mul_n21_alt))
  (let ((let35 (ff.mul let34 let33)))
  (let ((let36 (= let35 let1)))
  (let ((let37 mul_n20_alt))
  (let ((let38 (ff.mul let37 let22)))
  (let ((let39 (= let38 let34)))
  (let ((let40 g_n11_alt))
  (let ((let41 f_n2_alt))
  (let ((let42 (ff.mul let41 let40)))
  (let ((let43 (= let42 let37)))
  (let ((let44 mul_n19_alt))
  (let ((let45 c_n8_alt))
  (let ((let46 (ff.mul let45 let6)))
  (let ((let47 (ff.add let46 let5)))
  (let ((let48 mul_n18_alt))
  (let ((let49 (ff.mul let48 let47)))
  (let ((let50 (= let49 let44)))
  (let ((let51 mul_n17_alt))
  (let ((let52 (ff.mul let51 let6)))
  (let ((let53 (ff.add let52 let5)))
  (let ((let54 j_n5_alt))
  (let ((let55 (ff.mul let54 let6)))
  (let ((let56 (ff.add let55 let5)))
  (let ((let57 (ff.mul let56 let53)))
  (let ((let58 (= let57 let48)))
  (let ((let59 l_n0_alt))
  (let ((let60 (ff.mul let59 let6)))
  (let ((let61 (ff.add let60 let5)))
  (let ((let62 mul_n16_alt))
  (let ((let63 (ff.mul let62 let61)))
  (let ((let64 (= let63 let51)))
  (let ((let65 (ff.add let15 let5)))
  (let ((let66 mul_n15_alt))
  (let ((let67 (ff.mul let66 let65)))
  (let ((let68 (= let67 let62)))
  (let ((let69 h_n9_alt))
  (let ((let70 (ff.mul let69 let6)))
  (let ((let71 (ff.add let70 let5)))
  (let ((let72 mul_n14_alt))
  (let ((let73 (ff.mul let72 let71)))
  (let ((let74 (= let73 let66)))
  (let ((let75 (ff.mul let41 let6)))
  (let ((let76 (ff.add let75 let5)))
  (let ((let77 mul_n13_alt))
  (let ((let78 (ff.mul let77 let76)))
  (let ((let79 (= let78 let72)))
  (let ((let80 (ff.mul let33 let6)))
  (let ((let81 (ff.add let80 let5)))
  (let ((let82 (ff.mul let81 let56)))
  (let ((let83 (= let82 let77)))
  (let ((let84 (and let83 let79 let74 let68 let64 let58 let50 let43 let39 let36 let32 let27 let21 let14 let4)))
  (let ((let85 mul_n27))
  (let ((let86 mul_n22))
  (let ((let87 mul_n26))
  (let ((let88 (ff.mul let87 let86)))
  (let ((let89 (= let88 let85)))
  (let ((let90 mul_n23))
  (let ((let91 (ff.mul let90 let6)))
  (let ((let92 (ff.add let91 let5)))
  (let ((let93 i_n7))
  (let ((let94 mul_n25))
  (let ((let95 (ff.add let94 let93)))
  (let ((let96 (ff.mul let95 let92)))
  (let ((let97 (= let96 let87)))
  (let ((let98 (ff.mul let93 let6)))
  (let ((let99 mul_n24))
  (let ((let100 (ff.mul let99 let6)))
  (let ((let101 (ff.add let100 let98 let5)))
  (let ((let102 a_n12))
  (let ((let103 (ff.mul let102 let101)))
  (let ((let104 (= let103 let94)))
  (let ((let105 b_n10))
  (let ((let106 (ff.mul let105 let6)))
  (let ((let107 (ff.add let106 let5)))
  (let ((let108 d_n6))
  (let ((let109 (ff.mul let108 let107)))
  (let ((let110 (= let109 let99)))
  (let ((let111 (ff.mul let108 let6)))
  (let ((let112 (ff.add let111 let5)))
  (let ((let113 e_n4))
  (let ((let114 (ff.mul let113 let112)))
  (let ((let115 (= let114 let90)))
  (let ((let116 k_n3))
  (let ((let117 mul_n21))
  (let ((let118 (ff.mul let117 let116)))
  (let ((let119 (= let118 let86)))
  (let ((let120 mul_n20))
  (let ((let121 (ff.mul let120 let105)))
  (let ((let122 (= let121 let117)))
  (let ((let123 g_n11))
  (let ((let124 f_n2))
  (let ((let125 (ff.mul let124 let123)))
  (let ((let126 (= let125 let120)))
  (let ((let127 mul_n19))
  (let ((let128 c_n8))
  (let ((let129 (ff.mul let128 let6)))
  (let ((let130 (ff.add let129 let5)))
  (let ((let131 mul_n18))
  (let ((let132 (ff.mul let131 let130)))
  (let ((let133 (= let132 let127)))
  (let ((let134 mul_n17))
  (let ((let135 (ff.mul let134 let6)))
  (let ((let136 (ff.add let135 let5)))
  (let ((let137 j_n5))
  (let ((let138 (ff.mul let137 let6)))
  (let ((let139 (ff.add let138 let5)))
  (let ((let140 (ff.mul let139 let136)))
  (let ((let141 (= let140 let131)))
  (let ((let142 l_n0))
  (let ((let143 (ff.mul let142 let6)))
  (let ((let144 (ff.add let143 let5)))
  (let ((let145 mul_n16))
  (let ((let146 (ff.mul let145 let144)))
  (let ((let147 (= let146 let134)))
  (let ((let148 (ff.add let98 let5)))
  (let ((let149 mul_n15))
  (let ((let150 (ff.mul let149 let148)))
  (let ((let151 (= let150 let145)))
  (let ((let152 h_n9))
  (let ((let153 (ff.mul let152 let6)))
  (let ((let154 (ff.add let153 let5)))
  (let ((let155 mul_n14))
  (let ((let156 (ff.mul let155 let154)))
  (let ((let157 (= let156 let149)))
  (let ((let158 (ff.mul let124 let6)))
  (let ((let159 (ff.add let158 let5)))
  (let ((let160 mul_n13))
  (let ((let161 (ff.mul let160 let159)))
  (let ((let162 (= let161 let155)))
  (let ((let163 (ff.mul let116 let6)))
  (let ((let164 (ff.add let163 let5)))
  (let ((let165 (ff.mul let164 let139)))
  (let ((let166 (= let165 let160)))
  (let ((let167 (and let166 let162 let157 let151 let147 let141 let133 let126 let122 let119 let115 let110 let104 let97 let89)))
  (let ((let168 return_n1_alt))
  (let ((let169 return_n1))
  (let ((let170 (= let169 let168)))
  (let ((let171 (not let170)))
  (let ((let172 (= let137 let54)))
  (let ((let173 (= let93 let10)))
  (let ((let174 (= let113 let30)))
  (let ((let175 (= let105 let22)))
  (let ((let176 (= let102 let19)))
  (let ((let177 (= let124 let41)))
  (let ((let178 (= let142 let59)))
  (let ((let179 (= let123 let40)))
  (let ((let180 (= let152 let69)))
  (let ((let181 (= let116 let33)))
  (let ((let182 (= let128 let45)))
  (let ((let183 (= let108 let25)))
  (let ((let184 (and let183 let182 let181 let180 let179 let178 let177 let176 let175 let174 let173 let172)))
  (let ((let185 (and let184 let171 let167 let84)))
  let185
))))))))))))))))))))))))))))))))))))))))))))))))))))))))))))))))))))))))))))))))))))))))))))))))))))))))))))))))))))))))))))))))))))))))))))))))))))))))))))))))))))))))))))))))))))))))))
)
(check-sat)
